problems/GracefulGears/GracefulGears-models/compact/O2/lingeling/model-n04-solution000001.eprime-solution
language ESSENCE' 1.0

letting colour_Function1D be [3, 8, 4, 7, 1, 2, 0, 12, 11; int(0..8)]
letting edgeID_Function1D be [5, 4, 3, 6, 1, 2, 12, 9, 8, 7, 10, 11; int(0..11)]
