problems/GracefulGears/GracefulGears-models/compact/O2/lingeling/model-n04-solution000001.solution
language Essence 1.3

letting colour be function(0 --> 3, 1 --> 8, 2 --> 4, 3 --> 7, 4 --> 1, 5 --> 2, 6 --> 0, 7 --> 12, 8 --> 11)
letting edgeID be
        function(0 --> 5, 1 --> 4, 2 --> 3, 3 --> 6, 4 --> 1, 5 --> 2, 6 --> 12, 7 --> 9, 8 --> 8, 9 --> 7, 10 --> 10,
                 11 --> 11)
